DIMENSION: 225
200
1
3
198
197
4
5
6
7
8
9
10
11
12
13
14
15
16
17
20
203
19
18
21
22
23
24
208
25
26
34
33
35
32
76
75
74
73
72
71
70
69
68
67
66
65
64
63
62
61
60
59
58
54
53
52
55
56
57
51
49
207
2
47
225
190
133
199
224
48
45
218
193
196
192
191
205
189
27
188
50
195
194
46
44
43
42
41
40
39
38
37
36
204
28
29
30
202
206
31
216
219
217
77
78
79
96
97
98
99
100
101
102
103
104
220
105
106
107
108
109
110
111
112
113
114
115
223
116
117
187
118
119
186
184
185
120
175
121
122
123
124
125
126
127
128
129
222
130
211
131
132
215
134
135
183
136
137
138
139
140
141
142
201
143
144
157
156
155
154
153
148
147
146
145
159
160
161
162
163
158
213
164
165
166
167
214
212
150
151
152
149
168
169
170
171
172
182
173
181
174
180
179
176
177
178
88
89
82
83
84
85
86
210
87
90
91
92
93
94
209
95
80
81
